Route #1: 38 58 32 4 22 45
Route #2: 42 53 66 67 36 73 49
Route #3: 70 76 50 72 54 9 55 41 25 77 51
Route #4: 46 20 75 57 19 26 35 65 69 56 47 15 33 64
Route #5: 13 74 60 39 3
Route #6: 29 17 31 27 59 44 12 62
Route #7: 34 2 37 8 68 43 16 61 78 5
Route #8: 63 11 52 24 6 30 23
Route #9: 14 48 18 79 28 71 10
Route #10: 1 7 21 40
Cost 1784
Time 0.15155
